rectOffsets = 
    [|0,0,34,6|0,0,6,34|0,0,13,3|0,0,3,13|0,0,13,5|0,0,5,13|0,0,10,12|0,0,12,10|0,0,10,12|0,0,12,10|0,0,6,7|0,0,7,6|0,0,6,15|0,0,15,6|0,0,25,7|0,0,7,25|0,0,25,15|0,0,15,25|0,0,21,12|0,0,12,21|0,0,16,7|0,0,7,16|0,0,16,5|0,0,5,16|0,0,21,3|0,0,3,21|0,0,21,5|0,0,5,21|0,0,5,7|0,0,7,5|0,0,5,5|0,0,5,5|0,0,4,1|0,0,1,4|0,0,4,10|0,0,10,4|0,0,6,13|0,0,13,6|0,0,12,13|0,0,13,12|0,0,12,9|0,0,9,12|0,0,23,6|0,0,6,23|0,0,7,3|0,0,3,7|0,0,7,5|0,0,5,7|0,0,2,1|0,0,1,2|0,0,2,10|0,0,10,2|0,0,6,6|0,0,6,6|0,0,6,5|0,0,5,6|0,0,14,7|0,0,7,14|0,0,14,6|0,0,6,14|0,0,16,3|0,0,3,16|0,0,16,5|0,0,5,16|0,0,14,6|0,0,6,14|0,0,14,5|0,0,5,14|0,0,14,13|0,0,13,14|0,0,3,2|0,0,2,3|0,0,3,7|0,0,7,3|0,0,11,2|0,0,2,11|0,0,11,7|0,0,7,11|0,0,6,7|0,0,7,6|0,0,6,6|0,0,6,6|0,0,33,14|0,0,14,33|0,0,12,4|0,0,4,12|0,0,12,3|0,0,3,12|0,0,16,18|0,0,18,16|0,0,12,3|0,0,3,12|0,0,12,18|0,0,18,12|0,0,4,4|0,0,4,4|0,0,4,3|0,0,3,4|0,0,3,1|0,0,1,3|0,0,3,2|0,0,2,3|0,0,6,9|0,0,9,6|0,0,6,9|0,0,9,6|0,0,6,1|0,0,1,6|0,0,6,2|0,0,2,6|0,0,5,7|0,0,7,5|0,0,5,18|0,0,18,5|0,0,3,9|0,0,9,3|0,0,3,9|0,0,9,3|0,0,9,18|0,0,18,9|0,0,6,5|0,0,5,6|0,0,6,2|0,0,2,6|0,0,2,12|0,0,12,2|0,0,2,9|0,0,9,2|0,0,8,3|0,0,3,8|0,0,8,9|0,0,9,8|0,0,10,9|0,0,9,10|0,0,3,5|0,0,5,3|0,0,3,2|0,0,2,3|0,0,3,18|0,0,18,3|0,0,3,7|0,0,7,3|0,0,2,3|0,0,3,2|0,0,2,9|0,0,9,2|];

shape = array1d(1..146, [{1}, {2}, {3}, {4}, {5}, {6}, {7}, {8}, {9}, {10},
    {11}, {12}, {13}, {14}, {15}, {16}, {17}, {18}, {19}, {20}, {21},
    {22}, {23}, {24}, {25}, {26}, {27}, {28}, {29}, {30}, {31}, {32},
    {33}, {34}, {35}, {36}, {37}, {38}, {39}, {40}, {41}, {42}, {43},
    {44}, {45}, {46}, {47}, {48}, {49}, {50}, {51}, {52}, {53}, {54},
    {55}, {56}, {57}, {58}, {59}, {60}, {61}, {62}, {63}, {64}, {65},
    {66}, {67}, {68}, {69}, {70}, {71}, {72}, {73}, {74}, {75}, {76},
    {77}, {78}, {79}, {80}, {81}, {82}, {83}, {84}, {85}, {86}, {87},
    {88}, {89}, {90}, {91}, {92}, {93}, {94}, {95}, {96}, {97}, {98},
    {99}, {100}, {101}, {102}, {103}, {104}, {105}, {106}, {107},
    {108}, {109}, {110}, {111}, {112}, {113}, {114}, {115}, {116},
    {117}, {118}, {119}, {120}, {121}, {122}, {123}, {124}, {125},
    {126}, {127}, {128}, {129}, {130}, {131}, {132}, {133}, {134},
    {135}, {136}, {137}, {138}, {139}, {140}, {141}, {142}, {143},
    {144}, {145}, {146}]);

validshapes = array1d(1..73, [{1,2}, {3,4}, {5,6}, {7,8}, {9,10}, {11,12}, {13,14},
    {15,16}, {17,18}, {19,20}, {21,22}, {23,24}, {25,26}, {27,28},
    {29,30}, {31,32}, {33,34}, {35,36}, {37,38}, {39,40}, {41,42},
    {43,44}, {45,46}, {47,48}, {49,50}, {51,52}, {53,54}, {55,56},
    {57,58}, {59,60}, {61,62}, {63,64}, {65,66}, {67,68}, {69,70},
    {71,72}, {73,74}, {75,76}, {77,78}, {79,80}, {81,82}, {83,84},
    {85,86}, {87,88}, {89,90}, {91,92}, {93,94}, {95,96}, {97,98},
    {99,100}, {101,102}, {103,104}, {105,106}, {107,108}, {109,110},
    {111,112}, {113,114}, {115,116}, {117,118}, {119,120}, {121,122},
    {123,124}, {125,126}, {127,128}, {129,130}, {131,132}, {133,134},
    {135,136}, {137,138}, {139,140}, {141,142}, {143,144}, {145,146}]);

dx = array1d(1..73, [34, 13, 13, 10, 10, 6, 6, 25, 25, 21, 16, 16, 21, 21,
    5, 5, 4, 4, 6, 12, 12, 23, 7, 7, 2, 2, 6, 6, 14, 14, 16, 16, 14,
    14, 14, 3, 3, 11, 11, 6, 6, 33, 12, 12, 16, 12, 12, 4, 4, 3, 3, 6,
    6, 6, 6, 5, 5, 3, 3, 9, 6, 6, 2, 2, 8, 8, 10, 3, 3, 3, 3, 2, 2]);

dy = array1d(1..73, [6, 3, 5, 12, 12, 7, 15, 7, 15, 12, 7, 5, 3, 5, 7, 5,
    1, 10, 13, 13, 9, 6, 3, 5, 1, 10, 6, 5, 7, 6, 3, 5, 6, 5, 13, 2,
    7, 2, 7, 7, 6, 14, 4, 3, 18, 3, 18, 4, 3, 1, 2, 9, 9, 1, 2, 7, 18,
    9, 9, 18, 5, 2, 12, 9, 3, 9, 9, 5, 2, 18, 7, 3, 9]);

w = 60;

n = 73;

o = 146;

